Total weight: 1508.0414540338902
Route 1: 0 95 87 26 68 3 50 0 
Route 2: 0 47 36 8 18 0 
Route 3: 0 28 76 81 51 1 0 
Route 4: 0 42 14 44 38 86 84 17 60 89 0 
Route 5: 0 52 88 63 90 32 0 
Route 6: 0 74 39 23 67 55 25 54 0 
Route 7: 0 12 29 79 78 34 35 77 0 
Route 8: 0 27 69 30 70 0 
Route 9: 0 21 73 40 0 
Route 10: 0 5 61 16 85 93 0 
Route 11: 0 2 15 41 56 4 24 80 0 
Route 12: 0 19 64 49 46 48 0 
Route 13: 0 53 94 6 96 99 13 58 0 
Route 14: 0 59 92 98 37 97 0 
Route 15: 0 31 62 11 10 0 
Route 16: 0 33 65 71 9 66 20 0 
Route 17: 0 72 75 22 57 43 100 91 0 
Route 18: 0 83 45 82 7 0 
